p cnf 308 2543
130 150 152 163 181 0
91 115 121 161 251 253 0
142 143 168 256 258 0
83 180 0
126 133 135 140 265 0
118 153 173 0
61 68 113 156 0
172 175 176 187 199 269 0
191 192 194 196 202 0
125 154 197 273 0
147 158 211 276 0
145 162 171 206 0
159 207 216 220 0
112 183 210 0
51 105 108 0
102 103 138 0
99 100 0
98 185 0
92 93 94 96 198 0
124 129 131 148 201 0
119 122 170 204 0
86 88 89 116 0
82 84 136 141 0
78 81 106 111 0
71 72 74 76 77 0
67 69 70 114 155 0
58 60 64 65 0
55 56 193 0
53 128 146 0
85 87 160 0
49 50 52 80 109 0
46 48 75 213 215 0
218 219 222 223 224 0
101 104 226 227 228 0
229 230 231 232 0
234 235 236 0
186 238 239 0
240 241 242 243 244 0
95 97 245 246 247 0
120 132 149 164 248 0
117 123 165 249 0
169 250 0
90 252 254 255 0
167 257 259 0
134 179 261 0
66 157 263 264 0
63 266 267 0
174 177 268 0
188 189 195 0
54 200 270 271 0
166 208 272 274 0
110 184 212 275 277 0
214 217 221 0
139 225 0
107 278 0
-121 -130 0
-83 -130 0
-79 -130 0
-73 -130 0
-130 -135 0
-130 -153 0
-83 -121 0
-79 -121 0
-73 -121 0
-121 -135 0
-121 -153 0
-79 -83 0
-73 -83 0
-83 -135 0
-83 -153 0
-73 -79 0
-79 -135 0
-79 -153 0
-73 -135 0
-73 -153 0
-135 -153 0
-59 -172 0
-57 -59 0
-59 -197 0
-59 -147 0
-59 -162 0
-59 -159 0
-57 -172 0
-172 -197 0
-147 -172 0
-162 -172 0
-159 -172 0
-57 -197 0
-57 -147 0
-57 -162 0
-57 -159 0
-147 -197 0
-162 -197 0
-159 -197 0
-147 -162 0
-147 -159 0
-159 -162 0
-47 -51 0
-51 -100 0
-51 -280 0
-51 -233 0
-51 -237 0
-51 -185 0
-47 -100 0
-47 -280 0
-47 -233 0
-47 -237 0
-47 -185 0
-100 -280 0
-100 -233 0
-100 -237 0
-100 -185 0
-233 -280 0
-237 -280 0
-185 -280 0
-233 -237 0
-185 -233 0
-185 -237 0
-96 -124 0
-89 -96 0
-84 -96 0
-96 -111 0
-77 -96 0
-96 -260 0
-89 -124 0
-84 -124 0
-111 -124 0
-77 -124 0
-124 -260 0
-84 -89 0
-89 -111 0
-77 -89 0
-89 -260 0
-84 -111 0
-77 -84 0
-84 -260 0
-77 -111 0
-111 -260 0
-77 -260 0
-65 -70 0
-70 -281 0
-70 -193 0
-70 -282 0
-53 -70 0
-70 -283 0
-65 -281 0
-65 -193 0
-65 -282 0
-53 -65 0
-65 -283 0
-193 -281 0
-281 -282 0
-53 -281 0
-281 -283 0
-193 -282 0
-53 -193 0
-193 -283 0
-53 -282 0
-282 -283 0
-53 -283 0
-52 -284 0
-218 -284 0
-226 -284 0
-284 -285 0
-229 -284 0
-234 -284 0
-52 -218 0
-52 -226 0
-52 -285 0
-52 -229 0
-52 -234 0
-218 -226 0
-218 -285 0
-218 -229 0
-218 -234 0
-226 -285 0
-226 -229 0
-226 -234 0
-229 -285 0
-234 -285 0
-229 -234 0
-63 -268 0
-63 -188 0
-188 -268 0
-59 -130 0
-51 -130 0
-96 -130 0
-70 -130 0
-130 -284 0
-51 -59 0
-59 -96 0
-59 -70 0
-59 -284 0
-51 -96 0
-51 -70 0
-51 -284 0
-70 -96 0
-96 -284 0
-70 -284 0
-121 -172 0
-47 -121 0
-121 -124 0
-65 -121 0
-52 -121 0
-47 -172 0
-124 -172 0
-65 -172 0
-52 -172 0
-47 -124 0
-47 -65 0
-47 -52 0
-65 -124 0
-52 -124 0
-52 -65 0
-57 -83 0
-83 -100 0
-83 -89 0
-83 -281 0
-83 -218 0
-63 -83 0
-57 -100 0
-57 -89 0
-57 -281 0
-57 -218 0
-57 -63 0
-89 -100 0
-100 -281 0
-100 -218 0
-63 -100 0
-89 -281 0
-89 -218 0
-63 -89 0
-218 -281 0
-63 -281 0
-63 -218 0
-79 -197 0
-79 -280 0
-79 -84 0
-79 -193 0
-79 -226 0
-79 -268 0
-197 -280 0
-84 -197 0
-193 -197 0
-197 -226 0
-197 -268 0
-84 -280 0
-193 -280 0
-226 -280 0
-268 -280 0
-84 -193 0
-84 -226 0
-84 -268 0
-193 -226 0
-193 -268 0
-226 -268 0
-73 -147 0
-73 -233 0
-73 -111 0
-73 -282 0
-73 -285 0
-73 -188 0
-147 -233 0
-111 -147 0
-147 -282 0
-147 -285 0
-147 -188 0
-111 -233 0
-233 -282 0
-233 -285 0
-188 -233 0
-111 -282 0
-111 -285 0
-111 -188 0
-282 -285 0
-188 -282 0
-188 -285 0
-135 -162 0
-135 -237 0
-77 -135 0
-53 -135 0
-135 -229 0
-162 -237 0
-77 -162 0
-53 -162 0
-162 -229 0
-77 -237 0
-53 -237 0
-229 -237 0
-53 -77 0
-77 -229 0
-53 -229 0
-153 -159 0
-153 -185 0
-153 -260 0
-153 -283 0
-153 -234 0
-159 -185 0
-159 -260 0
-159 -283 0
-159 -234 0
-185 -260 0
-185 -283 0
-185 -234 0
-260 -283 0
-234 -260 0
-234 -283 0
-68 -140 0
-116 -141 0
-76 -116 0
-116 -127 0
-76 -141 0
-127 -141 0
-76 -127 0
-104 -219 0
-219 -230 0
-219 -238 0
-104 -230 0
-104 -238 0
-230 -238 0
-123 -132 0
-116 -219 0
-116 -132 0
-132 -219 0
-104 -141 0
-123 -141 0
-104 -123 0
-76 -140 0
-140 -230 0
-76 -230 0
-68 -127 0
-68 -238 0
-127 -238 0
-181 -251 0
-168 -181 0
-180 -181 0
-181 -307 0
-181 -262 0
-181 -265 0
-168 -251 0
-180 -251 0
-251 -307 0
-251 -262 0
-251 -265 0
-168 -180 0
-168 -307 0
-168 -262 0
-168 -265 0
-180 -307 0
-180 -262 0
-180 -265 0
-262 -307 0
-265 -307 0
-262 -265 0
-199 -288 0
-202 -288 0
-287 -288 0
-273 -288 0
-276 -288 0
-206 -288 0
-199 -202 0
-199 -287 0
-199 -273 0
-199 -276 0
-199 -206 0
-202 -287 0
-202 -273 0
-202 -276 0
-202 -206 0
-273 -287 0
-276 -287 0
-206 -287 0
-273 -276 0
-206 -273 0
-206 -276 0
-108 -291 0
-108 -138 0
-99 -108 0
-108 -292 0
-108 -293 0
-108 -294 0
-138 -291 0
-99 -291 0
-291 -292 0
-291 -293 0
-291 -294 0
-99 -138 0
-138 -292 0
-138 -293 0
-138 -294 0
-99 -292 0
-99 -293 0
-99 -294 0
-292 -293 0
-292 -294 0
-293 -294 0
-94 -129 0
-94 -119 0
-88 -94 0
-94 -136 0
-81 -94 0
-119 -129 0
-88 -129 0
-129 -136 0
-81 -129 0
-88 -119 0
-119 -136 0
-81 -119 0
-88 -136 0
-81 -88 0
-81 -136 0
-109 -209 0
-75 -209 0
-209 -222 0
-209 -227 0
-209 -279 0
-75 -109 0
-109 -222 0
-109 -227 0
-109 -279 0
-75 -222 0
-75 -227 0
-75 -279 0
-222 -227 0
-222 -279 0
-227 -279 0
-240 -245 0
-240 -295 0
-240 -248 0
-240 -249 0
-240 -250 0
-245 -295 0
-245 -248 0
-245 -249 0
-245 -250 0
-248 -295 0
-249 -295 0
-250 -295 0
-248 -249 0
-248 -250 0
-249 -250 0
-272 -296 0
-275 -296 0
-296 -297 0
-214 -296 0
-225 -296 0
-272 -275 0
-272 -297 0
-214 -272 0
-225 -272 0
-275 -297 0
-214 -275 0
-225 -275 0
-214 -297 0
-225 -297 0
-214 -225 0
-181 -288 0
-108 -181 0
-94 -181 0
-181 -209 0
-181 -240 0
-181 -296 0
-108 -288 0
-94 -288 0
-209 -288 0
-240 -288 0
-288 -296 0
-94 -108 0
-108 -209 0
-108 -240 0
-108 -296 0
-94 -209 0
-94 -240 0
-94 -296 0
-209 -240 0
-209 -296 0
-240 -296 0
-199 -251 0
-251 -291 0
-129 -251 0
-109 -251 0
-245 -251 0
-251 -272 0
-199 -291 0
-129 -199 0
-109 -199 0
-199 -245 0
-199 -272 0
-129 -291 0
-109 -291 0
-245 -291 0
-272 -291 0
-109 -129 0
-129 -245 0
-129 -272 0
-109 -245 0
-109 -272 0
-245 -272 0
-168 -202 0
-138 -168 0
-119 -168 0
-75 -168 0
-168 -295 0
-168 -275 0
-138 -202 0
-119 -202 0
-75 -202 0
-202 -295 0
-202 -275 0
-119 -138 0
-75 -138 0
-138 -295 0
-138 -275 0
-75 -119 0
-119 -295 0
-119 -275 0
-75 -295 0
-75 -275 0
-275 -295 0
-180 -287 0
-99 -180 0
-88 -180 0
-180 -222 0
-180 -248 0
-180 -297 0
-99 -287 0
-88 -287 0
-222 -287 0
-248 -287 0
-287 -297 0
-88 -99 0
-99 -222 0
-99 -248 0
-99 -297 0
-88 -222 0
-88 -248 0
-88 -297 0
-222 -248 0
-222 -297 0
-248 -297 0
-273 -307 0
-292 -307 0
-136 -307 0
-227 -307 0
-249 -307 0
-214 -307 0
-273 -292 0
-136 -273 0
-227 -273 0
-249 -273 0
-214 -273 0
-136 -292 0
-227 -292 0
-249 -292 0
-214 -292 0
-136 -227 0
-136 -249 0
-136 -214 0
-227 -249 0
-214 -227 0
-214 -249 0
-262 -276 0
-262 -293 0
-81 -262 0
-262 -279 0
-250 -262 0
-225 -262 0
-276 -293 0
-81 -276 0
-276 -279 0
-250 -276 0
-225 -276 0
-81 -293 0
-279 -293 0
-250 -293 0
-225 -293 0
-81 -279 0
-81 -250 0
-81 -225 0
-250 -279 0
-225 -279 0
-225 -250 0
-206 -265 0
-265 -294 0
-206 -294 0
-150 -253 0
-150 -256 0
-133 -150 0
-150 -173 0
-150 -156 0
-253 -256 0
-133 -253 0
-173 -253 0
-156 -253 0
-133 -256 0
-173 -256 0
-156 -256 0
-133 -173 0
-133 -156 0
-156 -173 0
-269 -298 0
-191 -298 0
-171 -298 0
-216 -298 0
-183 -298 0
-191 -269 0
-171 -269 0
-216 -269 0
-183 -269 0
-171 -191 0
-191 -216 0
-183 -191 0
-171 -216 0
-171 -183 0
-183 -216 0
-198 -201 0
-198 -204 0
-86 -198 0
-106 -198 0
-74 -198 0
-198 -299 0
-198 -300 0
-201 -204 0
-86 -201 0
-106 -201 0
-74 -201 0
-201 -299 0
-201 -300 0
-86 -204 0
-106 -204 0
-74 -204 0
-204 -299 0
-204 -300 0
-86 -106 0
-74 -86 0
-86 -299 0
-86 -300 0
-74 -106 0
-106 -299 0
-106 -300 0
-74 -299 0
-74 -300 0
-299 -300 0
-64 -114 0
-114 -301 0
-114 -178 0
-114 -302 0
-114 -128 0
-114 -303 0
-87 -114 0
-64 -301 0
-64 -178 0
-64 -302 0
-64 -128 0
-64 -303 0
-64 -87 0
-178 -301 0
-301 -302 0
-128 -301 0
-301 -303 0
-87 -301 0
-178 -302 0
-128 -178 0
-178 -303 0
-87 -178 0
-128 -302 0
-302 -303 0
-87 -302 0
-128 -303 0
-87 -128 0
-87 -303 0
-80 -304 0
-48 -304 0
-223 -304 0
-304 -305 0
-231 -304 0
-235 -304 0
-239 -304 0
-48 -80 0
-80 -223 0
-80 -305 0
-80 -231 0
-80 -235 0
-80 -239 0
-48 -223 0
-48 -305 0
-48 -231 0
-48 -235 0
-48 -239 0
-223 -305 0
-223 -231 0
-223 -235 0
-223 -239 0
-231 -305 0
-235 -305 0
-239 -305 0
-231 -235 0
-231 -239 0
-235 -239 0
-241 -246 0
-241 -306 0
-149 -241 0
-169 -241 0
-182 -241 0
-241 -252 0
-167 -241 0
-246 -306 0
-149 -246 0
-169 -246 0
-182 -246 0
-246 -252 0
-167 -246 0
-149 -306 0
-169 -306 0
-182 -306 0
-252 -306 0
-167 -306 0
-149 -169 0
-149 -182 0
-149 -252 0
-149 -167 0
-169 -182 0
-169 -252 0
-167 -169 0
-182 -252 0
-167 -182 0
-167 -252 0
-179 -308 0
-179 -263 0
-179 -266 0
-179 -189 0
-179 -289 0
-179 -200 0
-179 -203 0
-263 -308 0
-266 -308 0
-189 -308 0
-289 -308 0
-200 -308 0
-203 -308 0
-263 -266 0
-189 -263 0
-263 -289 0
-200 -263 0
-203 -263 0
-189 -266 0
-266 -289 0
-200 -266 0
-203 -266 0
-189 -289 0
-189 -200 0
-189 -203 0
-200 -289 0
-203 -289 0
-200 -203 0
-274 -286 0
-277 -286 0
-205 -286 0
-139 -286 0
-107 -286 0
-286 -290 0
-137 -286 0
-274 -277 0
-205 -274 0
-139 -274 0
-107 -274 0
-274 -290 0
-137 -274 0
-205 -277 0
-139 -277 0
-107 -277 0
-277 -290 0
-137 -277 0
-139 -205 0
-107 -205 0
-205 -290 0
-137 -205 0
-107 -139 0
-139 -290 0
-137 -139 0
-107 -290 0
-107 -137 0
-137 -290 0
-150 -298 0
-150 -198 0
-114 -150 0
-150 -304 0
-150 -241 0
-150 -179 0
-150 -286 0
-198 -298 0
-114 -298 0
-298 -304 0
-241 -298 0
-179 -298 0
-286 -298 0
-114 -198 0
-198 -304 0
-198 -241 0
-179 -198 0
-198 -286 0
-114 -304 0
-114 -241 0
-114 -179 0
-114 -286 0
-241 -304 0
-179 -304 0
-286 -304 0
-179 -241 0
-241 -286 0
-179 -286 0
-253 -269 0
-201 -253 0
-64 -253 0
-80 -253 0
-246 -253 0
-253 -308 0
-253 -274 0
-201 -269 0
-64 -269 0
-80 -269 0
-246 -269 0
-269 -308 0
-269 -274 0
-64 -201 0
-80 -201 0
-201 -246 0
-201 -308 0
-201 -274 0
-64 -80 0
-64 -246 0
-64 -308 0
-64 -274 0
-80 -246 0
-80 -308 0
-80 -274 0
-246 -308 0
-246 -274 0
-274 -308 0
-191 -256 0
-204 -256 0
-256 -301 0
-48 -256 0
-256 -306 0
-256 -263 0
-256 -277 0
-191 -204 0
-191 -301 0
-48 -191 0
-191 -306 0
-191 -263 0
-191 -277 0
-204 -301 0
-48 -204 0
-204 -306 0
-204 -263 0
-204 -277 0
-48 -301 0
-301 -306 0
-263 -301 0
-277 -301 0
-48 -306 0
-48 -263 0
-48 -277 0
-263 -306 0
-277 -306 0
-263 -277 0
-86 -178 0
-86 -223 0
-86 -149 0
-86 -266 0
-86 -205 0
-178 -223 0
-149 -178 0
-178 -266 0
-178 -205 0
-149 -223 0
-223 -266 0
-205 -223 0
-149 -266 0
-149 -205 0
-205 -266 0
-106 -302 0
-106 -305 0
-106 -169 0
-106 -189 0
-106 -139 0
-302 -305 0
-169 -302 0
-189 -302 0
-139 -302 0
-169 -305 0
-189 -305 0
-139 -305 0
-169 -189 0
-139 -169 0
-139 -189 0
-133 -171 0
-74 -133 0
-128 -133 0
-133 -231 0
-133 -182 0
-133 -289 0
-107 -133 0
-74 -171 0
-128 -171 0
-171 -231 0
-171 -182 0
-171 -289 0
-107 -171 0
-74 -128 0
-74 -231 0
-74 -182 0
-74 -289 0
-74 -107 0
-128 -231 0
-128 -182 0
-128 -289 0
-107 -128 0
-182 -231 0
-231 -289 0
-107 -231 0
-182 -289 0
-107 -182 0
-107 -289 0
-173 -216 0
-173 -299 0
-173 -303 0
-173 -235 0
-173 -252 0
-173 -200 0
-173 -290 0
-216 -299 0
-216 -303 0
-216 -235 0
-216 -252 0
-200 -216 0
-216 -290 0
-299 -303 0
-235 -299 0
-252 -299 0
-200 -299 0
-290 -299 0
-235 -303 0
-252 -303 0
-200 -303 0
-290 -303 0
-235 -252 0
-200 -235 0
-235 -290 0
-200 -252 0
-252 -290 0
-200 -290 0
-156 -183 0
-156 -300 0
-87 -156 0
-156 -239 0
-156 -167 0
-156 -203 0
-137 -156 0
-183 -300 0
-87 -183 0
-183 -239 0
-167 -183 0
-183 -203 0
-137 -183 0
-87 -300 0
-239 -300 0
-167 -300 0
-203 -300 0
-137 -300 0
-87 -239 0
-87 -167 0
-87 -203 0
-87 -137 0
-167 -239 0
-203 -239 0
-137 -239 0
-167 -203 0
-137 -167 0
-137 -203 0
-91 -152 0
-152 -258 0
-91 -258 0
-93 -148 0
-93 -170 0
-45 -93 0
-44 -93 0
-148 -170 0
-45 -148 0
-44 -148 0
-45 -170 0
-44 -170 0
-44 -45 0
-60 -69 0
-43 -69 0
-42 -69 0
-69 -85 0
-43 -60 0
-42 -60 0
-60 -85 0
-42 -43 0
-43 -85 0
-42 -85 0
-242 -247 0
-41 -242 0
-165 -242 0
-242 -254 0
-242 -257 0
-41 -247 0
-165 -247 0
-247 -254 0
-247 -257 0
-41 -165 0
-41 -254 0
-41 -257 0
-165 -254 0
-165 -257 0
-254 -257 0
-40 -134 0
-134 -157 0
-134 -174 0
-134 -270 0
-134 -190 0
-40 -157 0
-40 -174 0
-40 -270 0
-40 -190 0
-157 -174 0
-157 -270 0
-157 -190 0
-174 -270 0
-174 -190 0
-190 -270 0
-39 -166 0
-39 -184 0
-39 -217 0
-38 -39 0
-37 -39 0
-166 -184 0
-166 -217 0
-38 -166 0
-37 -166 0
-184 -217 0
-38 -184 0
-37 -184 0
-38 -217 0
-37 -217 0
-37 -38 0
-93 -152 0
-69 -152 0
-152 -242 0
-134 -152 0
-39 -152 0
-69 -93 0
-93 -242 0
-93 -134 0
-39 -93 0
-69 -242 0
-69 -134 0
-39 -69 0
-134 -242 0
-39 -242 0
-39 -134 0
-91 -148 0
-60 -91 0
-91 -247 0
-40 -91 0
-91 -166 0
-60 -148 0
-148 -247 0
-40 -148 0
-148 -166 0
-60 -247 0
-40 -60 0
-60 -166 0
-40 -247 0
-166 -247 0
-40 -166 0
-170 -258 0
-43 -258 0
-41 -258 0
-157 -258 0
-184 -258 0
-43 -170 0
-41 -170 0
-157 -170 0
-170 -184 0
-41 -43 0
-43 -157 0
-43 -184 0
-41 -157 0
-41 -184 0
-157 -184 0
-165 -174 0
-165 -217 0
-174 -217 0
-42 -45 0
-45 -254 0
-45 -270 0
-38 -45 0
-42 -254 0
-42 -270 0
-38 -42 0
-254 -270 0
-38 -254 0
-38 -270 0
-44 -85 0
-44 -257 0
-44 -190 0
-37 -44 0
-85 -257 0
-85 -190 0
-37 -85 0
-190 -257 0
-37 -257 0
-37 -190 0
-115 -163 0
-142 -163 0
-36 -163 0
-35 -163 0
-126 -163 0
-118 -163 0
-113 -163 0
-115 -142 0
-36 -115 0
-35 -115 0
-115 -126 0
-115 -118 0
-113 -115 0
-36 -142 0
-35 -142 0
-126 -142 0
-118 -142 0
-113 -142 0
-35 -36 0
-36 -126 0
-36 -118 0
-36 -113 0
-35 -126 0
-35 -118 0
-35 -113 0
-118 -126 0
-113 -126 0
-113 -118 0
-34 -175 0
-34 -192 0
-34 -154 0
-34 -211 0
-34 -145 0
-34 -220 0
-34 -210 0
-175 -192 0
-154 -175 0
-175 -211 0
-145 -175 0
-175 -220 0
-175 -210 0
-154 -192 0
-192 -211 0
-145 -192 0
-192 -220 0
-192 -210 0
-154 -211 0
-145 -154 0
-154 -220 0
-154 -210 0
-145 -211 0
-211 -220 0
-210 -211 0
-145 -220 0
-145 -210 0
-210 -220 0
-33 -105 0
-103 -105 0
-32 -105 0
-31 -105 0
-30 -105 0
-98 -105 0
-29 -105 0
-33 -103 0
-32 -33 0
-31 -33 0
-30 -33 0
-33 -98 0
-29 -33 0
-32 -103 0
-31 -103 0
-30 -103 0
-98 -103 0
-29 -103 0
-31 -32 0
-30 -32 0
-32 -98 0
-29 -32 0
-30 -31 0
-31 -98 0
-29 -31 0
-30 -98 0
-29 -30 0
-29 -98 0
-92 -131 0
-92 -122 0
-82 -92 0
-78 -92 0
-72 -92 0
-28 -92 0
-27 -92 0
-122 -131 0
-82 -131 0
-78 -131 0
-72 -131 0
-28 -131 0
-27 -131 0
-82 -122 0
-78 -122 0
-72 -122 0
-28 -122 0
-27 -122 0
-78 -82 0
-72 -82 0
-28 -82 0
-27 -82 0
-72 -78 0
-28 -78 0
-27 -78 0
-28 -72 0
-27 -72 0
-27 -28 0
-58 -155 0
-26 -155 0
-56 -155 0
-25 -155 0
-146 -155 0
-24 -155 0
-155 -160 0
-26 -58 0
-56 -58 0
-25 -58 0
-58 -146 0
-24 -58 0
-58 -160 0
-26 -56 0
-25 -26 0
-26 -146 0
-24 -26 0
-26 -160 0
-25 -56 0
-56 -146 0
-24 -56 0
-56 -160 0
-25 -146 0
-24 -25 0
-25 -160 0
-24 -146 0
-146 -160 0
-24 -160 0
-23 -50 0
-23 -46 0
-23 -101 0
-22 -23 0
-23 -232 0
-23 -236 0
-23 -186 0
-46 -50 0
-50 -101 0
-22 -50 0
-50 -232 0
-50 -236 0
-50 -186 0
-46 -101 0
-22 -46 0
-46 -232 0
-46 -236 0
-46 -186 0
-22 -101 0
-101 -232 0
-101 -236 0
-101 -186 0
-22 -232 0
-22 -236 0
-22 -186 0
-232 -236 0
-186 -232 0
-186 -236 0
-97 -243 0
-21 -243 0
-151 -243 0
-90 -243 0
-243 -259 0
-21 -97 0
-97 -151 0
-90 -97 0
-97 -259 0
-21 -151 0
-21 -90 0
-21 -259 0
-90 -151 0
-151 -259 0
-90 -259 0
-20 -261 0
-66 -261 0
-19 -261 0
-54 -261 0
-18 -261 0
-20 -66 0
-19 -20 0
-20 -54 0
-18 -20 0
-19 -66 0
-54 -66 0
-18 -66 0
-19 -54 0
-18 -19 0
-18 -54 0
-34 -163 0
-105 -163 0
-92 -163 0
-155 -163 0
-23 -163 0
-163 -243 0
-163 -261 0
-34 -105 0
-34 -92 0
-34 -155 0
-23 -34 0
-34 -243 0
-34 -261 0
-92 -105 0
-105 -155 0
-23 -105 0
-105 -243 0
-105 -261 0
-92 -155 0
-23 -92 0
-92 -243 0
-92 -261 0
-23 -155 0
-155 -243 0
-155 -261 0
-23 -243 0
-23 -261 0
-243 -261 0
-115 -175 0
-33 -115 0
-115 -131 0
-58 -115 0
-50 -115 0
-97 -115 0
-20 -115 0
-33 -175 0
-131 -175 0
-58 -175 0
-50 -175 0
-97 -175 0
-20 -175 0
-33 -131 0
-33 -58 0
-33 -50 0
-33 -97 0
-20 -33 0
-58 -131 0
-50 -131 0
-97 -131 0
-20 -131 0
-50 -58 0
-58 -97 0
-20 -58 0
-50 -97 0
-20 -50 0
-20 -97 0
-142 -192 0
-103 -142 0
-122 -142 0
-26 -142 0
-46 -142 0
-21 -142 0
-66 -142 0
-103 -192 0
-122 -192 0
-26 -192 0
-46 -192 0
-21 -192 0
-66 -192 0
-103 -122 0
-26 -103 0
-46 -103 0
-21 -103 0
-66 -103 0
-26 -122 0
-46 -122 0
-21 -122 0
-66 -122 0
-26 -46 0
-21 -26 0
-26 -66 0
-21 -46 0
-46 -66 0
-21 -66 0
-36 -154 0
-32 -36 0
-36 -82 0
-36 -56 0
-36 -101 0
-32 -154 0
-82 -154 0
-56 -154 0
-101 -154 0
-32 -82 0
-32 -56 0
-32 -101 0
-56 -82 0
-82 -101 0
-56 -101 0
-35 -211 0
-31 -35 0
-35 -78 0
-25 -35 0
-22 -35 0
-31 -211 0
-78 -211 0
-25 -211 0
-22 -211 0
-31 -78 0
-25 -31 0
-22 -31 0
-25 -78 0
-22 -78 0
-22 -25 0
-126 -145 0
-30 -126 0
-72 -126 0
-126 -146 0
-126 -232 0
-126 -151 0
-19 -126 0
-30 -145 0
-72 -145 0
-145 -146 0
-145 -232 0
-145 -151 0
-19 -145 0
-30 -72 0
-30 -146 0
-30 -232 0
-30 -151 0
-19 -30 0
-72 -146 0
-72 -232 0
-72 -151 0
-19 -72 0
-146 -232 0
-146 -151 0
-19 -146 0
-151 -232 0
-19 -232 0
-19 -151 0
-118 -220 0
-98 -118 0
-28 -118 0
-24 -118 0
-118 -236 0
-90 -118 0
-54 -118 0
-98 -220 0
-28 -220 0
-24 -220 0
-220 -236 0
-90 -220 0
-54 -220 0
-28 -98 0
-24 -98 0
-98 -236 0
-90 -98 0
-54 -98 0
-24 -28 0
-28 -236 0
-28 -90 0
-28 -54 0
-24 -236 0
-24 -90 0
-24 -54 0
-90 -236 0
-54 -236 0
-54 -90 0
-113 -210 0
-29 -113 0
-27 -113 0
-113 -160 0
-113 -186 0
-113 -259 0
-18 -113 0
-29 -210 0
-27 -210 0
-160 -210 0
-186 -210 0
-210 -259 0
-18 -210 0
-27 -29 0
-29 -160 0
-29 -186 0
-29 -259 0
-18 -29 0
-27 -160 0
-27 -186 0
-27 -259 0
-18 -27 0
-160 -186 0
-160 -259 0
-18 -160 0
-186 -259 0
-18 -186 0
-18 -259 0
-17 -67 0
-16 -67 0
-55 -67 0
-16 -17 0
-17 -55 0
-16 -55 0
-15 -213 0
-15 -224 0
-15 -228 0
-213 -224 0
-213 -228 0
-224 -228 0
-14 -244 0
-164 -244 0
-117 -244 0
-14 -164 0
-14 -117 0
-117 -164 0
-13 -212 0
-13 -144 0
-13 -221 0
-144 -212 0
-212 -221 0
-144 -221 0
-15 -67 0
-67 -244 0
-13 -67 0
-15 -244 0
-13 -15 0
-13 -244 0
-17 -213 0
-14 -17 0
-17 -212 0
-14 -213 0
-212 -213 0
-14 -212 0
-16 -224 0
-16 -164 0
-16 -144 0
-164 -224 0
-144 -224 0
-144 -164 0
-55 -228 0
-55 -117 0
-55 -221 0
-117 -228 0
-221 -228 0
-117 -221 0
-176 -194 0
-12 -71 0
-11 -95 0
-95 -120 0
-10 -95 0
-95 -255 0
-11 -120 0
-10 -11 0
-11 -255 0
-10 -120 0
-120 -255 0
-10 -255 0
-9 -264 0
-9 -267 0
-8 -9 0
-9 -271 0
-264 -267 0
-8 -264 0
-264 -271 0
-8 -267 0
-267 -271 0
-8 -271 0
-110 -208 0
-7 -208 0
-208 -278 0
-6 -208 0
-7 -110 0
-110 -278 0
-6 -110 0
-7 -278 0
-6 -7 0
-6 -278 0
-95 -176 0
-9 -176 0
-176 -208 0
-9 -95 0
-95 -208 0
-9 -208 0
-11 -194 0
-194 -264 0
-110 -194 0
-11 -264 0
-11 -110 0
-110 -264 0
-120 -267 0
-7 -120 0
-7 -267 0
-10 -71 0
-8 -71 0
-71 -278 0
-8 -10 0
-10 -278 0
-8 -278 0
-12 -255 0
-12 -271 0
-6 -12 0
-255 -271 0
-6 -255 0
-6 -271 0
-143 -161 0
-5 -161 0
-62 -161 0
-61 -161 0
-5 -143 0
-62 -143 0
-61 -143 0
-5 -62 0
-5 -61 0
-61 -62 0
-187 -196 0
-125 -187 0
-158 -187 0
-112 -187 0
-125 -196 0
-158 -196 0
-112 -196 0
-125 -158 0
-112 -125 0
-112 -158 0
-4 -102 0
-3 -4 0
-2 -4 0
-1 -4 0
-3 -102 0
-2 -102 0
-1 -102 0
-2 -3 0
-1 -3 0
-1 -2 0
-49 -215 0
-177 -195 0
-161 -187 0
-4 -161 0
-49 -161 0
-4 -187 0
-49 -187 0
-4 -49 0
-143 -196 0
-102 -143 0
-143 -215 0
-102 -196 0
-196 -215 0
-102 -215 0
-5 -125 0
-3 -5 0
-5 -177 0
-3 -125 0
-125 -177 0
-3 -177 0
-62 -158 0
-2 -62 0
-62 -195 0
-2 -158 0
-158 -195 0
-2 -195 0
-61 -112 0
-1 -61 0
-1 -112 0
-121 -130 0
-59 -130 0
-130 -172 0
-51 -130 0
-47 -130 0
-59 -121 0
-121 -172 0
-51 -121 0
-47 -121 0
-59 -172 0
-51 -59 0
-47 -59 0
-51 -172 0
-47 -172 0
-47 -51 0
-181 -251 0
-168 -181 0
-181 -288 0
-181 -199 0
-181 -202 0
-108 -181 0
-181 -291 0
-138 -181 0
-168 -251 0
-251 -288 0
-199 -251 0
-202 -251 0
-108 -251 0
-251 -291 0
-138 -251 0
-168 -288 0
-168 -199 0
-168 -202 0
-108 -168 0
-168 -291 0
-138 -168 0
-199 -288 0
-202 -288 0
-108 -288 0
-288 -291 0
-138 -288 0
-199 -202 0
-108 -199 0
-199 -291 0
-138 -199 0
-108 -202 0
-202 -291 0
-138 -202 0
-108 -291 0
-108 -138 0
-138 -291 0
-150 -253 0
-150 -256 0
-150 -298 0
-150 -269 0
-150 -191 0
-253 -256 0
-253 -298 0
-253 -269 0
-191 -253 0
-256 -298 0
-256 -269 0
-191 -256 0
-269 -298 0
-191 -298 0
-191 -269 0
-91 -152 0
-152 -258 0
-91 -258 0
-115 -163 0
-142 -163 0
-34 -163 0
-163 -175 0
-163 -192 0
-105 -163 0
-33 -163 0
-103 -163 0
-115 -142 0
-34 -115 0
-115 -175 0
-115 -192 0
-105 -115 0
-33 -115 0
-103 -115 0
-34 -142 0
-142 -175 0
-142 -192 0
-105 -142 0
-33 -142 0
-103 -142 0
-34 -175 0
-34 -192 0
-34 -105 0
-33 -34 0
-34 -103 0
-175 -192 0
-105 -175 0
-33 -175 0
-103 -175 0
-105 -192 0
-33 -192 0
-103 -192 0
-33 -105 0
-103 -105 0
-33 -103 0
-176 -194 0
-143 -161 0
-161 -187 0
-161 -196 0
-4 -161 0
-102 -161 0
-143 -187 0
-143 -196 0
-4 -143 0
-102 -143 0
-187 -196 0
-4 -187 0
-102 -187 0
-4 -196 0
-102 -196 0
-4 -102 0
-79 -83 0
-73 -83 0
-57 -83 0
-83 -197 0
-83 -147 0
-83 -100 0
-83 -280 0
-83 -233 0
-73 -79 0
-57 -79 0
-79 -197 0
-79 -147 0
-79 -100 0
-79 -280 0
-79 -233 0
-57 -73 0
-73 -197 0
-73 -147 0
-73 -100 0
-73 -280 0
-73 -233 0
-57 -197 0
-57 -147 0
-57 -100 0
-57 -280 0
-57 -233 0
-147 -197 0
-100 -197 0
-197 -280 0
-197 -233 0
-100 -147 0
-147 -280 0
-147 -233 0
-100 -280 0
-100 -233 0
-233 -280 0
-180 -307 0
-180 -262 0
-180 -287 0
-180 -273 0
-180 -276 0
-99 -180 0
-180 -292 0
-180 -293 0
-262 -307 0
-287 -307 0
-273 -307 0
-276 -307 0
-99 -307 0
-292 -307 0
-293 -307 0
-262 -287 0
-262 -273 0
-262 -276 0
-99 -262 0
-262 -292 0
-262 -293 0
-273 -287 0
-276 -287 0
-99 -287 0
-287 -292 0
-287 -293 0
-273 -276 0
-99 -273 0
-273 -292 0
-273 -293 0
-99 -276 0
-276 -292 0
-276 -293 0
-99 -292 0
-99 -293 0
-292 -293 0
-35 -36 0
-36 -154 0
-36 -211 0
-32 -36 0
-31 -36 0
-35 -154 0
-35 -211 0
-32 -35 0
-31 -35 0
-154 -211 0
-32 -154 0
-31 -154 0
-32 -211 0
-31 -211 0
-31 -32 0
-5 -62 0
-5 -125 0
-5 -158 0
-3 -5 0
-2 -5 0
-62 -125 0
-62 -158 0
-3 -62 0
-2 -62 0
-125 -158 0
-3 -125 0
-2 -125 0
-3 -158 0
-2 -158 0
-2 -3 0
-135 -153 0
-135 -162 0
-135 -159 0
-135 -237 0
-135 -185 0
-153 -162 0
-153 -159 0
-153 -237 0
-153 -185 0
-159 -162 0
-162 -237 0
-162 -185 0
-159 -237 0
-159 -185 0
-185 -237 0
-68 -140 0
-206 -265 0
-265 -294 0
-206 -294 0
-133 -173 0
-133 -156 0
-133 -171 0
-133 -216 0
-133 -183 0
-156 -173 0
-171 -173 0
-173 -216 0
-173 -183 0
-156 -171 0
-156 -216 0
-156 -183 0
-171 -216 0
-171 -183 0
-183 -216 0
-118 -126 0
-113 -126 0
-126 -145 0
-126 -220 0
-126 -210 0
-30 -126 0
-98 -126 0
-29 -126 0
-113 -118 0
-118 -145 0
-118 -220 0
-118 -210 0
-30 -118 0
-98 -118 0
-29 -118 0
-113 -145 0
-113 -220 0
-113 -210 0
-30 -113 0
-98 -113 0
-29 -113 0
-145 -220 0
-145 -210 0
-30 -145 0
-98 -145 0
-29 -145 0
-210 -220 0
-30 -220 0
-98 -220 0
-29 -220 0
-30 -210 0
-98 -210 0
-29 -210 0
-30 -98 0
-29 -30 0
-29 -98 0
-61 -112 0
-1 -61 0
-1 -112 0
-96 -124 0
-70 -96 0
-65 -96 0
-96 -284 0
-52 -96 0
-70 -124 0
-65 -124 0
-124 -284 0
-52 -124 0
-65 -70 0
-70 -284 0
-52 -70 0
-65 -284 0
-52 -65 0
-52 -284 0
-94 -129 0
-94 -119 0
-94 -209 0
-94 -109 0
-75 -94 0
-119 -129 0
-129 -209 0
-109 -129 0
-75 -129 0
-119 -209 0
-109 -119 0
-75 -119 0
-109 -209 0
-75 -209 0
-75 -109 0
-198 -201 0
-198 -204 0
-114 -198 0
-64 -198 0
-198 -301 0
-198 -304 0
-80 -198 0
-48 -198 0
-201 -204 0
-114 -201 0
-64 -201 0
-201 -301 0
-201 -304 0
-80 -201 0
-48 -201 0
-114 -204 0
-64 -204 0
-204 -301 0
-204 -304 0
-80 -204 0
-48 -204 0
-64 -114 0
-114 -301 0
-114 -304 0
-80 -114 0
-48 -114 0
-64 -301 0
-64 -304 0
-64 -80 0
-48 -64 0
-301 -304 0
-80 -301 0
-48 -301 0
-80 -304 0
-48 -304 0
-48 -80 0
-93 -148 0
-93 -170 0
-69 -93 0
-60 -93 0
-43 -93 0
-148 -170 0
-69 -148 0
-60 -148 0
-43 -148 0
-69 -170 0
-60 -170 0
-43 -170 0
-60 -69 0
-43 -69 0
-43 -60 0
-92 -131 0
-92 -122 0
-92 -155 0
-58 -92 0
-26 -92 0
-23 -92 0
-50 -92 0
-46 -92 0
-122 -131 0
-131 -155 0
-58 -131 0
-26 -131 0
-23 -131 0
-50 -131 0
-46 -131 0
-122 -155 0
-58 -122 0
-26 -122 0
-23 -122 0
-50 -122 0
-46 -122 0
-58 -155 0
-26 -155 0
-23 -155 0
-50 -155 0
-46 -155 0
-26 -58 0
-23 -58 0
-50 -58 0
-46 -58 0
-23 -26 0
-26 -50 0
-26 -46 0
-23 -50 0
-23 -46 0
-46 -50 0
-17 -67 0
-15 -67 0
-67 -213 0
-15 -17 0
-17 -213 0
-15 -213 0
-49 -215 0
-84 -89 0
-89 -111 0
-89 -281 0
-89 -193 0
-89 -282 0
-89 -218 0
-89 -226 0
-89 -285 0
-84 -111 0
-84 -281 0
-84 -193 0
-84 -282 0
-84 -218 0
-84 -226 0
-84 -285 0
-111 -281 0
-111 -193 0
-111 -282 0
-111 -218 0
-111 -226 0
-111 -285 0
-193 -281 0
-281 -282 0
-218 -281 0
-226 -281 0
-281 -285 0
-193 -282 0
-193 -218 0
-193 -226 0
-193 -285 0
-218 -282 0
-226 -282 0
-282 -285 0
-218 -226 0
-218 -285 0
-226 -285 0
-116 -141 0
-116 -219 0
-104 -116 0
-141 -219 0
-104 -141 0
-104 -219 0
-88 -136 0
-81 -88 0
-88 -222 0
-88 -227 0
-88 -279 0
-81 -136 0
-136 -222 0
-136 -227 0
-136 -279 0
-81 -222 0
-81 -227 0
-81 -279 0
-222 -227 0
-222 -279 0
-227 -279 0
-86 -106 0
-86 -178 0
-86 -302 0
-86 -223 0
-86 -305 0
-106 -178 0
-106 -302 0
-106 -223 0
-106 -305 0
-178 -302 0
-178 -223 0
-178 -305 0
-223 -302 0
-302 -305 0
-223 -305 0
-78 -82 0
-56 -82 0
-25 -82 0
-82 -101 0
-22 -82 0
-56 -78 0
-25 -78 0
-78 -101 0
-22 -78 0
-25 -56 0
-56 -101 0
-22 -56 0
-25 -101 0
-22 -25 0
-22 -101 0
-16 -55 0
-16 -224 0
-16 -228 0
-55 -224 0
-55 -228 0
-224 -228 0
-77 -260 0
-53 -77 0
-77 -283 0
-77 -229 0
-77 -234 0
-53 -260 0
-260 -283 0
-229 -260 0
-234 -260 0
-53 -283 0
-53 -229 0
-53 -234 0
-229 -283 0
-234 -283 0
-229 -234 0
-76 -127 0
-76 -230 0
-76 -238 0
-127 -230 0
-127 -238 0
-230 -238 0
-74 -299 0
-74 -300 0
-74 -128 0
-74 -303 0
-74 -87 0
-74 -231 0
-74 -235 0
-74 -239 0
-299 -300 0
-128 -299 0
-299 -303 0
-87 -299 0
-231 -299 0
-235 -299 0
-239 -299 0
-128 -300 0
-300 -303 0
-87 -300 0
-231 -300 0
-235 -300 0
-239 -300 0
-128 -303 0
-87 -128 0
-128 -231 0
-128 -235 0
-128 -239 0
-87 -303 0
-231 -303 0
-235 -303 0
-239 -303 0
-87 -231 0
-87 -235 0
-87 -239 0
-231 -235 0
-231 -239 0
-235 -239 0
-44 -45 0
-42 -45 0
-45 -85 0
-42 -44 0
-44 -85 0
-42 -85 0
-28 -72 0
-27 -72 0
-72 -146 0
-24 -72 0
-72 -160 0
-72 -232 0
-72 -236 0
-72 -186 0
-27 -28 0
-28 -146 0
-24 -28 0
-28 -160 0
-28 -232 0
-28 -236 0
-28 -186 0
-27 -146 0
-24 -27 0
-27 -160 0
-27 -232 0
-27 -236 0
-27 -186 0
-24 -146 0
-146 -160 0
-146 -232 0
-146 -236 0
-146 -186 0
-24 -160 0
-24 -232 0
-24 -236 0
-24 -186 0
-160 -232 0
-160 -236 0
-160 -186 0
-232 -236 0
-186 -232 0
-186 -236 0
-12 -71 0
-240 -245 0
-240 -295 0
-240 -296 0
-240 -272 0
-240 -275 0
-245 -295 0
-245 -296 0
-245 -272 0
-245 -275 0
-295 -296 0
-272 -295 0
-275 -295 0
-272 -296 0
-275 -296 0
-272 -275 0
-241 -246 0
-241 -306 0
-179 -241 0
-241 -308 0
-241 -263 0
-241 -286 0
-241 -274 0
-241 -277 0
-246 -306 0
-179 -246 0
-246 -308 0
-246 -263 0
-246 -286 0
-246 -274 0
-246 -277 0
-179 -306 0
-306 -308 0
-263 -306 0
-286 -306 0
-274 -306 0
-277 -306 0
-179 -308 0
-179 -263 0
-179 -286 0
-179 -274 0
-179 -277 0
-263 -308 0
-286 -308 0
-274 -308 0
-277 -308 0
-263 -286 0
-263 -274 0
-263 -277 0
-274 -286 0
-277 -286 0
-274 -277 0
-242 -247 0
-41 -242 0
-134 -242 0
-40 -242 0
-157 -242 0
-39 -242 0
-166 -242 0
-184 -242 0
-41 -247 0
-134 -247 0
-40 -247 0
-157 -247 0
-39 -247 0
-166 -247 0
-184 -247 0
-41 -134 0
-40 -41 0
-41 -157 0
-39 -41 0
-41 -166 0
-41 -184 0
-40 -134 0
-134 -157 0
-39 -134 0
-134 -166 0
-134 -184 0
-40 -157 0
-39 -40 0
-40 -166 0
-40 -184 0
-39 -157 0
-157 -166 0
-157 -184 0
-39 -166 0
-39 -184 0
-166 -184 0
-97 -243 0
-21 -243 0
-243 -261 0
-20 -243 0
-66 -243 0
-21 -97 0
-97 -261 0
-20 -97 0
-66 -97 0
-21 -261 0
-20 -21 0
-21 -66 0
-20 -261 0
-66 -261 0
-20 -66 0
-14 -244 0
-13 -244 0
-212 -244 0
-13 -14 0
-14 -212 0
-13 -212 0
-11 -95 0
-9 -95 0
-95 -264 0
-95 -208 0
-95 -110 0
-9 -11 0
-11 -264 0
-11 -208 0
-11 -110 0
-9 -264 0
-9 -208 0
-9 -110 0
-208 -264 0
-110 -264 0
-110 -208 0
-63 -268 0
-63 -188 0
-188 -268 0
-123 -132 0
-248 -249 0
-248 -250 0
-248 -297 0
-214 -248 0
-225 -248 0
-249 -250 0
-249 -297 0
-214 -249 0
-225 -249 0
-250 -297 0
-214 -250 0
-225 -250 0
-214 -297 0
-225 -297 0
-214 -225 0
-149 -169 0
-149 -266 0
-149 -189 0
-149 -205 0
-139 -149 0
-169 -266 0
-169 -189 0
-169 -205 0
-139 -169 0
-189 -266 0
-205 -266 0
-139 -266 0
-189 -205 0
-139 -189 0
-139 -205 0
-165 -174 0
-165 -217 0
-174 -217 0
-117 -164 0
-144 -164 0
-164 -221 0
-117 -144 0
-117 -221 0
-144 -221 0
-120 -267 0
-7 -120 0
-7 -267 0
-177 -195 0
-182 -252 0
-167 -182 0
-182 -289 0
-182 -200 0
-182 -203 0
-107 -182 0
-182 -290 0
-137 -182 0
-167 -252 0
-252 -289 0
-200 -252 0
-203 -252 0
-107 -252 0
-252 -290 0
-137 -252 0
-167 -289 0
-167 -200 0
-167 -203 0
-107 -167 0
-167 -290 0
-137 -167 0
-200 -289 0
-203 -289 0
-107 -289 0
-289 -290 0
-137 -289 0
-200 -203 0
-107 -200 0
-200 -290 0
-137 -200 0
-107 -203 0
-203 -290 0
-137 -203 0
-107 -290 0
-107 -137 0
-137 -290 0
-254 -257 0
-254 -270 0
-190 -254 0
-38 -254 0
-37 -254 0
-257 -270 0
-190 -257 0
-38 -257 0
-37 -257 0
-190 -270 0
-38 -270 0
-37 -270 0
-38 -190 0
-37 -190 0
-37 -38 0
-90 -151 0
-151 -259 0
-19 -151 0
-54 -151 0
-18 -151 0
-90 -259 0
-19 -90 0
-54 -90 0
-18 -90 0
-19 -259 0
-54 -259 0
-18 -259 0
-19 -54 0
-18 -19 0
-18 -54 0
-10 -255 0
-8 -10 0
-10 -271 0
-10 -278 0
-6 -10 0
-8 -255 0
-255 -271 0
-255 -278 0
-6 -255 0
-8 -271 0
-8 -278 0
-6 -8 0
-271 -278 0
-6 -271 0
-6 -278 0
